DIMENSION: 6
EDGE_WEIGHT_TYPE: EXPLICIT
EDGE_WEIGHT_FORMAT: FULL_MATRIX
EDGE_WEIGHT_SECTION:
32767 32767 32767 32767 60 32767 
32767 32767 32767 32767 87 48 
32767 32767 32767 32767 56 32767 
32767 32767 32767 32767 32767 48 
60 87 56 32767 32767 32767 
32767 48 32767 48 32767 32767 
EOF